(set-info :smt-lib-version 2.6)
(set-logic UF)
(set-info :source |Benchmarks from the paper: "Extending Sledgehammer with SMT Solvers" by Jasmin Blanchette, Sascha Bohme, and Lawrence C. Paulson, CADE 2011.  Translated to SMT2 by Andrew Reynolds and Morgan Deters.|)
(set-info :category "industrial")
(set-info :status unknown)
(declare-sort S1 0)
(declare-sort S2 0)
(declare-sort S3 0)
(declare-sort S4 0)
(declare-sort S5 0)
(declare-sort S6 0)
(declare-sort S7 0)
(declare-sort S8 0)
(declare-sort S9 0)
(declare-sort S10 0)
(declare-sort S11 0)
(declare-sort S12 0)
(declare-sort S13 0)
(declare-sort S14 0)
(declare-sort S15 0)
(declare-sort S16 0)
(declare-sort S17 0)
(declare-sort S18 0)
(declare-sort S19 0)
(declare-sort S20 0)
(declare-sort S21 0)
(declare-sort S22 0)
(declare-sort S23 0)
(declare-sort S24 0)
(declare-sort S25 0)
(declare-sort S26 0)
(declare-sort S27 0)
(declare-sort S28 0)
(declare-sort S29 0)
(declare-sort S30 0)
(declare-sort S31 0)
(declare-sort S32 0)
(declare-sort S33 0)
(declare-sort S34 0)
(declare-sort S35 0)
(declare-sort S36 0)
(declare-sort S37 0)
(declare-sort S38 0)
(declare-sort S39 0)
(declare-sort S40 0)
(declare-sort S41 0)
(declare-sort S42 0)
(declare-sort S43 0)
(declare-sort S44 0)
(declare-sort S45 0)
(declare-sort S46 0)
(declare-sort S47 0)
(declare-sort S48 0)
(declare-sort S49 0)
(declare-sort S50 0)
(declare-sort S51 0)
(declare-sort S52 0)
(declare-sort S53 0)
(declare-sort S54 0)
(declare-sort S55 0)
(declare-sort S56 0)
(declare-fun f1 () S1)
(declare-fun f2 () S1)
(declare-fun f3 (S2 S3) S4)
(declare-fun f4 (S5 S4) S2)
(declare-fun f5 () S5)
(declare-fun f6 () S4)
(declare-fun f7 () S3)
(declare-fun f8 (S6 S4) S4)
(declare-fun f9 (S7 S4) S6)
(declare-fun f10 () S7)
(declare-fun f11 () S4)
(declare-fun f12 () S4)
(declare-fun f13 (S8 S9) S6)
(declare-fun f14 () S8)
(declare-fun f15 (S10 S9) S9)
(declare-fun f16 () S10)
(declare-fun f17 () S9)
(declare-fun f18 () S9)
(declare-fun f19 () S4)
(declare-fun f20 (S11 S3) S3)
(declare-fun f21 (S12 S3) S11)
(declare-fun f22 () S12)
(declare-fun f23 (S13 S4) S3)
(declare-fun f24 (S14 S9) S13)
(declare-fun f25 () S14)
(declare-fun f26 () S4)
(declare-fun f27 () S13)
(declare-fun f28 () S4)
(declare-fun f29 (S3 S3) S1)
(declare-fun f30 (S3 S3) S1)
(declare-fun f31 () S4)
(declare-fun f32 () S3)
(declare-fun f33 () S3)
(declare-fun f34 (S4 S4) S1)
(declare-fun f35 (S15 S16) S3)
(declare-fun f36 () S15)
(declare-fun f37 (S17 S3) S16)
(declare-fun f38 (S18 S16) S17)
(declare-fun f39 () S18)
(declare-fun f40 (S19 S16) S16)
(declare-fun f41 (S20 S3) S19)
(declare-fun f42 () S20)
(declare-fun f43 () S3)
(declare-fun f44 () S16)
(declare-fun f45 (S21 S22) S3)
(declare-fun f46 () S21)
(declare-fun f47 (S22 S3) S22)
(declare-fun f48 (S16 S22) S22)
(declare-fun f49 () S16)
(declare-fun f50 () S22)
(declare-fun f51 (S24 S25) S3)
(declare-fun f52 () S24)
(declare-fun f53 (S26 S3) S25)
(declare-fun f54 (S27 S25) S26)
(declare-fun f55 () S27)
(declare-fun f56 (S28 S25) S25)
(declare-fun f57 (S29 S23) S28)
(declare-fun f58 () S29)
(declare-fun f59 () S23)
(declare-fun f60 () S25)
(declare-fun f61 (S30 S31) S3)
(declare-fun f62 () S30)
(declare-fun f63 (S32 S3) S31)
(declare-fun f64 (S33 S31) S32)
(declare-fun f65 () S33)
(declare-fun f66 (S34 S31) S31)
(declare-fun f67 (S35 S4) S34)
(declare-fun f68 () S35)
(declare-fun f69 () S4)
(declare-fun f70 () S31)
(declare-fun f71 () S12)
(declare-fun f72 (S25 S25) S1)
(declare-fun f73 () S25)
(declare-fun f74 (S25 S25) S1)
(declare-fun f75 (S23 S23) S1)
(declare-fun f76 (S23 S23) S1)
(declare-fun f77 (S36 S3) S23)
(declare-fun f78 (S37 S23) S36)
(declare-fun f79 () S37)
(declare-fun f80 () S23)
(declare-fun f81 () S12)
(declare-fun f82 (S38 S23) S23)
(declare-fun f83 (S39 S23) S38)
(declare-fun f84 () S39)
(declare-fun f85 (S40 S25) S28)
(declare-fun f86 () S40)
(declare-fun f87 (S41 S4) S30)
(declare-fun f88 () S41)
(declare-fun f89 (S42 S23) S24)
(declare-fun f90 () S42)
(declare-fun f91 (S43 S4) S10)
(declare-fun f92 () S43)
(declare-fun f93 () S9)
(declare-fun f94 () S31)
(declare-fun f95 (S3 S3) S1)
(declare-fun f96 (S31 S31) S1)
(declare-fun f97 (S25 S25) S1)
(declare-fun f98 (S16 S16) S1)
(declare-fun f99 (S23 S23) S1)
(declare-fun f100 (S9 S9) S1)
(declare-fun f101 (S44 S3) S9)
(declare-fun f102 (S45 S9) S44)
(declare-fun f103 () S45)
(declare-fun f104 (S46 S46) S1)
(declare-fun f105 (S47 S3) S46)
(declare-fun f106 (S48 S46) S47)
(declare-fun f107 () S48)
(declare-fun f108 (S49 S46) S46)
(declare-fun f109 (S50 S31) S49)
(declare-fun f110 () S50)
(declare-fun f111 () S34)
(declare-fun f112 () S46)
(declare-fun f113 (S51 S46) S3)
(declare-fun f114 (S52 S31) S51)
(declare-fun f115 () S52)
(declare-fun f116 () S38)
(declare-fun f117 () S6)
(declare-fun f118 (S53 S31) S34)
(declare-fun f119 () S53)
(declare-fun f120 (S54 S16) S19)
(declare-fun f121 () S54)
(declare-fun f122 (S55 S9) S10)
(declare-fun f123 () S55)
(declare-fun f124 () S7)
(declare-fun f125 () S55)
(declare-fun f126 () S40)
(declare-fun f127 () S39)
(declare-fun f128 (S56 S46) S49)
(declare-fun f129 () S56)
(declare-fun f130 () S53)
(declare-fun f131 () S28)
(declare-fun f132 () S49)
(assert (not (= f1 f2)))
(assert (let ((?v_0 (f21 f22 f7))) (not (= (f3 (f4 f5 f6) f7) (f8 (f9 f10 f11) (f8 (f9 f10 (f8 (f9 f10 f12) (f3 (f4 f5 (f8 (f13 f14 (f15 f16 f17)) (f8 (f13 f14 f18) f19))) (f20 ?v_0 (f23 (f24 f25 f17) f11))))) (f3 (f4 f5 f26) (f20 ?v_0 (f23 f27 f28)))))))))
(assert (= (f29 (f23 (f24 f25 f17) f11) f7) f1))
(assert (= (f30 (f23 f27 f28) f7) f1))
(assert (not (= f6 f19)))
(assert (= (f23 f27 f31) f32))
(assert (= (f23 f27 f11) f7))
(assert (not (= f28 f19)))
(assert (not (= f11 f19)))
(assert (= (f3 (f4 f5 f26) (f23 f27 f28)) (f8 (f9 f10 f28) f12)))
(assert (not (= f7 f33)))
(assert (= (f30 (f23 f27 f28) f7) f1))
(assert (forall ((?v0 S9)) (= (f29 (f23 (f24 f25 ?v0) f11) f7) f1)))
(assert (= f6 (f8 (f9 f10 (f8 (f13 f14 (f15 f16 f17)) (f8 (f13 f14 f18) f19))) f26)))
(assert (= f11 (f8 (f9 f10 (f3 (f4 f5 (f8 (f13 f14 (f15 f16 f17)) (f8 (f13 f14 f18) f19))) (f23 (f24 f25 f17) f11))) f28)))
(assert (= (f29 (f23 (f24 f25 f17) f11) f7) f1))
(assert (not (= (f23 f27 f28) f33)))
(assert (not (= (f23 (f24 f25 f17) f11) f33)))
(assert (=> (forall ((?v0 S4)) (=> (= (f3 (f4 f5 f26) (f23 f27 f28)) (f8 (f9 f10 f28) ?v0)) false)) false))
(assert (=> (forall ((?v0 S4)) (=> (= f6 (f8 (f9 f10 (f8 (f13 f14 (f15 f16 f17)) (f8 (f13 f14 f18) f19))) ?v0)) false)) false))
(assert (=> (forall ((?v0 S4)) (=> (= f11 (f8 (f9 f10 (f3 (f4 f5 (f8 (f13 f14 (f15 f16 f17)) (f8 (f13 f14 f18) f19))) (f23 (f24 f25 f17) f11))) ?v0)) false)) false))
(assert (= (f34 (f3 (f4 f5 (f8 (f13 f14 (f15 f16 f17)) (f8 (f13 f14 f18) f19))) (f23 (f24 f25 f17) f11)) f11) f1))
(assert (= (f34 (f8 (f13 f14 (f15 f16 f17)) (f8 (f13 f14 f18) f19)) f6) f1))
(assert (=> (= f6 f19) (= (f34 f11 (f3 (f4 f5 f6) f7)) f1)))
(assert (forall ((?v0 S9) (?v1 S3)) (= (f23 f27 (f3 (f4 f5 (f8 (f13 f14 ?v0) (f8 (f13 f14 f18) f19))) ?v1)) ?v1)))
(assert (forall ((?v0 S3) (?v1 S3)) (= (f35 f36 (f37 (f38 f39 (f40 (f41 f42 ?v0) (f40 (f41 f42 f43) f44))) ?v1)) ?v1)))
(assert (forall ((?v0 S16) (?v1 S3)) (= (f45 f46 (f47 (f48 ?v0 (f48 f49 f50)) ?v1)) ?v1)))
(assert (forall ((?v0 S23) (?v1 S3)) (= (f51 f52 (f53 (f54 f55 (f56 (f57 f58 ?v0) (f56 (f57 f58 f59) f60))) ?v1)) ?v1)))
(assert (forall ((?v0 S4) (?v1 S3)) (= (f61 f62 (f63 (f64 f65 (f66 (f67 f68 ?v0) (f66 (f67 f68 f69) f70))) ?v1)) ?v1)))
(assert (forall ((?v0 S3) (?v1 S3) (?v2 S3)) (let ((?v_0 (f21 f71 ?v0))) (=> (= (f30 f43 ?v0) f1) (= (= (f29 (f20 ?v_0 ?v1) (f20 ?v_0 ?v2)) f1) (= (f29 ?v1 ?v2) f1))))))
(assert (forall ((?v0 S25) (?v1 S3) (?v2 S3)) (let ((?v_0 (f54 f55 ?v0))) (=> (= (f72 f73 ?v0) f1) (= (= (f74 (f53 ?v_0 ?v1) (f53 ?v_0 ?v2)) f1) (= (f29 ?v1 ?v2) f1))))))
(assert (forall ((?v0 S23) (?v1 S3) (?v2 S3)) (let ((?v_0 (f78 f79 ?v0))) (=> (= (f75 f59 ?v0) f1) (= (= (f76 (f77 ?v_0 ?v1) (f77 ?v_0 ?v2)) f1) (= (f29 ?v1 ?v2) f1))))))
(assert (forall ((?v0 S3) (?v1 S3) (?v2 S3)) (let ((?v_0 (f21 f71 ?v0))) (=> (= (f30 f43 ?v0) f1) (=> (= (f29 (f20 ?v_0 ?v1) (f20 ?v_0 ?v2)) f1) (= (f29 ?v1 ?v2) f1))))))
(assert (forall ((?v0 S25) (?v1 S3) (?v2 S3)) (let ((?v_0 (f54 f55 ?v0))) (=> (= (f72 f73 ?v0) f1) (=> (= (f74 (f53 ?v_0 ?v1) (f53 ?v_0 ?v2)) f1) (= (f29 ?v1 ?v2) f1))))))
(assert (forall ((?v0 S23) (?v1 S3) (?v2 S3)) (let ((?v_0 (f78 f79 ?v0))) (=> (= (f75 f59 ?v0) f1) (=> (= (f76 (f77 ?v_0 ?v1) (f77 ?v_0 ?v2)) f1) (= (f29 ?v1 ?v2) f1))))))
(assert (forall ((?v0 S3) (?v1 S3) (?v2 S3)) (let ((?v_0 (f21 f71 ?v2))) (=> (= (f29 ?v0 ?v1) f1) (=> (= (f29 f33 ?v2) f1) (=> (= (f29 ?v2 f43) f1) (= (f29 (f20 ?v_0 ?v1) (f20 ?v_0 ?v0)) f1)))))))
(assert (forall ((?v0 S3) (?v1 S3) (?v2 S23)) (let ((?v_0 (f78 f79 ?v2))) (=> (= (f29 ?v0 ?v1) f1) (=> (= (f76 f80 ?v2) f1) (=> (= (f76 ?v2 f59) f1) (= (f76 (f77 ?v_0 ?v1) (f77 ?v_0 ?v0)) f1)))))))
(assert (forall ((?v0 S3) (?v1 S3) (?v2 S25)) (let ((?v_0 (f54 f55 ?v2))) (=> (= (f29 ?v0 ?v1) f1) (=> (= (f74 f60 ?v2) f1) (=> (= (f74 ?v2 f73) f1) (= (f74 (f53 ?v_0 ?v1) (f53 ?v_0 ?v0)) f1)))))))
(assert (forall ((?v0 S3) (?v1 S3) (?v2 S3)) (let ((?v_0 (f21 f71 ?v2))) (=> (= (f30 ?v0 ?v1) f1) (=> (= (f30 f33 ?v2) f1) (=> (= (f30 ?v2 f43) f1) (= (f30 (f20 ?v_0 ?v1) (f20 ?v_0 ?v0)) f1)))))))
(assert (forall ((?v0 S3) (?v1 S3) (?v2 S23)) (let ((?v_0 (f78 f79 ?v2))) (=> (= (f30 ?v0 ?v1) f1) (=> (= (f75 f80 ?v2) f1) (=> (= (f75 ?v2 f59) f1) (= (f75 (f77 ?v_0 ?v1) (f77 ?v_0 ?v0)) f1)))))))
(assert (forall ((?v0 S3) (?v1 S3) (?v2 S25)) (let ((?v_0 (f54 f55 ?v2))) (=> (= (f30 ?v0 ?v1) f1) (=> (= (f72 f60 ?v2) f1) (=> (= (f72 ?v2 f73) f1) (= (f72 (f53 ?v_0 ?v1) (f53 ?v_0 ?v0)) f1)))))))
(assert (forall ((?v0 S23) (?v1 S23) (?v2 S3)) (=> (= (f75 ?v0 ?v1) f1) (=> (= (f76 f80 ?v0) f1) (=> (= (f30 f33 ?v2) f1) (= (f75 (f77 (f78 f79 ?v0) ?v2) (f77 (f78 f79 ?v1) ?v2)) f1))))))
(assert (forall ((?v0 S3) (?v1 S3) (?v2 S3)) (=> (= (f30 ?v0 ?v1) f1) (=> (= (f29 f33 ?v0) f1) (=> (= (f30 f33 ?v2) f1) (= (f30 (f20 (f21 f71 ?v0) ?v2) (f20 (f21 f71 ?v1) ?v2)) f1))))))
(assert (forall ((?v0 S25) (?v1 S25) (?v2 S3)) (=> (= (f72 ?v0 ?v1) f1) (=> (= (f74 f60 ?v0) f1) (=> (= (f30 f33 ?v2) f1) (= (f72 (f53 (f54 f55 ?v0) ?v2) (f53 (f54 f55 ?v1) ?v2)) f1))))))
(assert (forall ((?v0 S3) (?v1 S3)) (let ((?v_0 (f20 (f21 f71 ?v0) ?v1))) (=> (= (f30 f33 ?v0) f1) (=> (= (f30 ?v0 f43) f1) (= (f30 (f20 (f21 f81 ?v0) ?v_0) ?v_0) f1))))))
(assert (forall ((?v0 S23) (?v1 S3)) (let ((?v_0 (f77 (f78 f79 ?v0) ?v1))) (=> (= (f75 f80 ?v0) f1) (=> (= (f75 ?v0 f59) f1) (= (f75 (f82 (f83 f84 ?v0) ?v_0) ?v_0) f1))))))
(assert (forall ((?v0 S25) (?v1 S3)) (let ((?v_0 (f53 (f54 f55 ?v0) ?v1))) (=> (= (f72 f60 ?v0) f1) (=> (= (f72 ?v0 f73) f1) (= (f72 (f56 (f85 f86 ?v0) ?v_0) ?v_0) f1))))))
(assert (forall ((?v0 S4) (?v1 S9)) (=> (not (= ?v0 f19)) (= (f29 (f23 (f24 f25 ?v1) ?v0) (f23 f27 ?v0)) f1))))
(assert (forall ((?v0 S31) (?v1 S4)) (=> (not (= ?v0 f70)) (= (f29 (f61 (f87 f88 ?v1) ?v0) (f61 f62 ?v0)) f1))))
(assert (forall ((?v0 S25) (?v1 S23)) (=> (not (= ?v0 f60)) (= (f29 (f51 (f89 f90 ?v1) ?v0) (f51 f52 ?v0)) f1))))
(assert (= (f34 f28 (f3 (f4 f5 f26) (f23 f27 f28))) f1))
(assert (not (= f32 f33)))
(assert (=> (= (f23 f27 f28) f33) (= (f34 f11 (f3 (f4 f5 f6) f7)) f1)))
(assert (= (f15 (f91 f92 f11) f17) f93))
(assert (forall ((?v0 S9)) (=> (= (f15 (f91 f92 f11) ?v0) f93) (= (f15 (f91 f92 f6) ?v0) f93))))
(assert (= (f23 f27 f69) f33))
(assert (= (f61 f62 f94) f33))
(assert (= (f51 f52 f73) f33))
(assert (= (f35 f36 f49) f33))
(assert (forall ((?v0 S3) (?v1 S3)) (= (= (f30 f33 (f20 (f21 f71 ?v0) ?v1)) f1) (or (= (f30 f33 ?v0) f1) (= ?v1 f33)))))
(assert (forall ((?v0 S3) (?v1 S3) (?v2 S3)) (let ((?v_0 (f21 f71 ?v0))) (=> (= (f30 f33 ?v0) f1) (=> (= (f30 (f20 ?v_0 ?v1) (f20 ?v_0 ?v2)) f1) (= (f30 ?v1 ?v2) f1))))))
(assert (forall ((?v0 S4) (?v1 S4) (?v2 S3)) (=> (= (f34 ?v0 ?v1) f1) (= (f34 (f3 (f4 f5 ?v0) ?v2) (f3 (f4 f5 ?v1) ?v2)) f1))))
(assert (forall ((?v0 S3) (?v1 S3) (?v2 S3)) (=> (= (f95 ?v0 ?v1) f1) (= (f95 (f20 (f21 f71 ?v0) ?v2) (f20 (f21 f71 ?v1) ?v2)) f1))))
(assert (forall ((?v0 S31) (?v1 S31) (?v2 S3)) (=> (= (f96 ?v0 ?v1) f1) (= (f96 (f63 (f64 f65 ?v0) ?v2) (f63 (f64 f65 ?v1) ?v2)) f1))))
(assert (forall ((?v0 S25) (?v1 S25) (?v2 S3)) (=> (= (f97 ?v0 ?v1) f1) (= (f97 (f53 (f54 f55 ?v0) ?v2) (f53 (f54 f55 ?v1) ?v2)) f1))))
(assert (forall ((?v0 S16) (?v1 S16) (?v2 S3)) (=> (= (f98 ?v0 ?v1) f1) (= (f98 (f37 (f38 f39 ?v0) ?v2) (f37 (f38 f39 ?v1) ?v2)) f1))))
(assert (forall ((?v0 S23) (?v1 S23) (?v2 S3)) (=> (= (f99 ?v0 ?v1) f1) (= (f99 (f77 (f78 f79 ?v0) ?v2) (f77 (f78 f79 ?v1) ?v2)) f1))))
(assert (forall ((?v0 S9) (?v1 S9) (?v2 S3)) (=> (= (f100 ?v0 ?v1) f1) (= (f100 (f101 (f102 f103 ?v0) ?v2) (f101 (f102 f103 ?v1) ?v2)) f1))))
(assert (forall ((?v0 S3) (?v1 S3) (?v2 S3)) (let ((?v_0 (f21 f71 ?v0))) (= (f20 ?v_0 (f20 (f21 f81 ?v1) ?v2)) (f20 (f21 f71 (f20 ?v_0 ?v1)) ?v2)))))
(assert (forall ((?v0 S4) (?v1 S3) (?v2 S3)) (let ((?v_0 (f4 f5 ?v0))) (= (f3 ?v_0 (f20 (f21 f81 ?v1) ?v2)) (f3 (f4 f5 (f3 ?v_0 ?v1)) ?v2)))))
(assert (forall ((?v0 S31) (?v1 S3) (?v2 S3)) (let ((?v_0 (f64 f65 ?v0))) (= (f63 ?v_0 (f20 (f21 f81 ?v1) ?v2)) (f63 (f64 f65 (f63 ?v_0 ?v1)) ?v2)))))
(assert (forall ((?v0 S25) (?v1 S3) (?v2 S3)) (let ((?v_0 (f54 f55 ?v0))) (= (f53 ?v_0 (f20 (f21 f81 ?v1) ?v2)) (f53 (f54 f55 (f53 ?v_0 ?v1)) ?v2)))))
(assert (forall ((?v0 S16) (?v1 S3) (?v2 S3)) (let ((?v_0 (f38 f39 ?v0))) (= (f37 ?v_0 (f20 (f21 f81 ?v1) ?v2)) (f37 (f38 f39 (f37 ?v_0 ?v1)) ?v2)))))
(assert (forall ((?v0 S9) (?v1 S3) (?v2 S3)) (let ((?v_0 (f102 f103 ?v0))) (= (f101 ?v_0 (f20 (f21 f81 ?v1) ?v2)) (f101 (f102 f103 (f101 ?v_0 ?v1)) ?v2)))))
(assert (forall ((?v0 S23) (?v1 S3) (?v2 S3)) (let ((?v_0 (f78 f79 ?v0))) (= (f77 ?v_0 (f20 (f21 f81 ?v1) ?v2)) (f77 (f78 f79 (f77 ?v_0 ?v1)) ?v2)))))
(assert (forall ((?v0 S3)) (= (f20 (f21 f71 ?v0) f43) ?v0)))
(assert (forall ((?v0 S4)) (= (f3 (f4 f5 ?v0) f43) ?v0)))
(assert (forall ((?v0 S31)) (= (f63 (f64 f65 ?v0) f43) ?v0)))
(assert (forall ((?v0 S25)) (= (f53 (f54 f55 ?v0) f43) ?v0)))
(assert (forall ((?v0 S16)) (= (f37 (f38 f39 ?v0) f43) ?v0)))
(assert (forall ((?v0 S9)) (= (f101 (f102 f103 ?v0) f43) ?v0)))
(assert (forall ((?v0 S23)) (= (f77 (f78 f79 ?v0) f43) ?v0)))
(assert (forall ((?v0 S3) (?v1 S4)) (=> (or (= (f30 f33 ?v0) f1) (= ?v1 f69)) (= (f34 ?v1 (f3 (f4 f5 ?v1) ?v0)) f1))))
(assert (forall ((?v0 S3) (?v1 S3)) (=> (or (= (f30 f33 ?v0) f1) (= ?v1 f43)) (= (f95 ?v1 (f20 (f21 f71 ?v1) ?v0)) f1))))
(assert (forall ((?v0 S3) (?v1 S9)) (=> (or (= (f30 f33 ?v0) f1) (= ?v1 f18)) (= (f100 ?v1 (f101 (f102 f103 ?v1) ?v0)) f1))))
(assert (forall ((?v0 S3) (?v1 S31)) (=> (or (= (f30 f33 ?v0) f1) (= ?v1 f94)) (= (f96 ?v1 (f63 (f64 f65 ?v1) ?v0)) f1))))
(assert (forall ((?v0 S3) (?v1 S25)) (=> (or (= (f30 f33 ?v0) f1) (= ?v1 f73)) (= (f97 ?v1 (f53 (f54 f55 ?v1) ?v0)) f1))))
(assert (forall ((?v0 S3) (?v1 S16)) (=> (or (= (f30 f33 ?v0) f1) (= ?v1 f49)) (= (f98 ?v1 (f37 (f38 f39 ?v1) ?v0)) f1))))
(assert (forall ((?v0 S3) (?v1 S23)) (=> (or (= (f30 f33 ?v0) f1) (= ?v1 f59)) (= (f99 ?v1 (f77 (f78 f79 ?v1) ?v0)) f1))))
(assert (forall ((?v0 S4) (?v1 S3) (?v2 S4) (?v3 S3)) (let ((?v_0 (f4 f5 ?v0))) (=> (= (f34 (f3 ?v_0 ?v1) ?v2) f1) (=> (= (f29 ?v3 ?v1) f1) (= (f34 (f3 ?v_0 ?v3) ?v2) f1))))))
(assert (forall ((?v0 S3) (?v1 S3) (?v2 S3) (?v3 S3)) (let ((?v_0 (f21 f71 ?v0))) (=> (= (f95 (f20 ?v_0 ?v1) ?v2) f1) (=> (= (f29 ?v3 ?v1) f1) (= (f95 (f20 ?v_0 ?v3) ?v2) f1))))))
(assert (forall ((?v0 S31) (?v1 S3) (?v2 S31) (?v3 S3)) (let ((?v_0 (f64 f65 ?v0))) (=> (= (f96 (f63 ?v_0 ?v1) ?v2) f1) (=> (= (f29 ?v3 ?v1) f1) (= (f96 (f63 ?v_0 ?v3) ?v2) f1))))))
(assert (forall ((?v0 S25) (?v1 S3) (?v2 S25) (?v3 S3)) (let ((?v_0 (f54 f55 ?v0))) (=> (= (f97 (f53 ?v_0 ?v1) ?v2) f1) (=> (= (f29 ?v3 ?v1) f1) (= (f97 (f53 ?v_0 ?v3) ?v2) f1))))))
(assert (forall ((?v0 S16) (?v1 S3) (?v2 S16) (?v3 S3)) (let ((?v_0 (f38 f39 ?v0))) (=> (= (f98 (f37 ?v_0 ?v1) ?v2) f1) (=> (= (f29 ?v3 ?v1) f1) (= (f98 (f37 ?v_0 ?v3) ?v2) f1))))))
(assert (forall ((?v0 S23) (?v1 S3) (?v2 S23) (?v3 S3)) (let ((?v_0 (f78 f79 ?v0))) (=> (= (f99 (f77 ?v_0 ?v1) ?v2) f1) (=> (= (f29 ?v3 ?v1) f1) (= (f99 (f77 ?v_0 ?v3) ?v2) f1))))))
(assert (forall ((?v0 S9) (?v1 S3) (?v2 S9) (?v3 S3)) (let ((?v_0 (f102 f103 ?v0))) (=> (= (f100 (f101 ?v_0 ?v1) ?v2) f1) (=> (= (f29 ?v3 ?v1) f1) (= (f100 (f101 ?v_0 ?v3) ?v2) f1))))))
(assert (forall ((?v0 S4) (?v1 S4) (?v2 S3) (?v3 S3)) (=> (= (f34 ?v0 ?v1) f1) (=> (= (f29 ?v2 ?v3) f1) (= (f34 (f3 (f4 f5 ?v0) ?v2) (f3 (f4 f5 ?v1) ?v3)) f1)))))
(assert (forall ((?v0 S3) (?v1 S3) (?v2 S3) (?v3 S3)) (=> (= (f95 ?v0 ?v1) f1) (=> (= (f29 ?v2 ?v3) f1) (= (f95 (f20 (f21 f71 ?v0) ?v2) (f20 (f21 f71 ?v1) ?v3)) f1)))))
(assert (forall ((?v0 S31) (?v1 S31) (?v2 S3) (?v3 S3)) (=> (= (f96 ?v0 ?v1) f1) (=> (= (f29 ?v2 ?v3) f1) (= (f96 (f63 (f64 f65 ?v0) ?v2) (f63 (f64 f65 ?v1) ?v3)) f1)))))
(assert (forall ((?v0 S25) (?v1 S25) (?v2 S3) (?v3 S3)) (=> (= (f97 ?v0 ?v1) f1) (=> (= (f29 ?v2 ?v3) f1) (= (f97 (f53 (f54 f55 ?v0) ?v2) (f53 (f54 f55 ?v1) ?v3)) f1)))))
(assert (forall ((?v0 S16) (?v1 S16) (?v2 S3) (?v3 S3)) (=> (= (f98 ?v0 ?v1) f1) (=> (= (f29 ?v2 ?v3) f1) (= (f98 (f37 (f38 f39 ?v0) ?v2) (f37 (f38 f39 ?v1) ?v3)) f1)))))
(assert (forall ((?v0 S23) (?v1 S23) (?v2 S3) (?v3 S3)) (=> (= (f99 ?v0 ?v1) f1) (=> (= (f29 ?v2 ?v3) f1) (= (f99 (f77 (f78 f79 ?v0) ?v2) (f77 (f78 f79 ?v1) ?v3)) f1)))))
(assert (forall ((?v0 S9) (?v1 S9) (?v2 S3) (?v3 S3)) (=> (= (f100 ?v0 ?v1) f1) (=> (= (f29 ?v2 ?v3) f1) (= (f100 (f101 (f102 f103 ?v0) ?v2) (f101 (f102 f103 ?v1) ?v3)) f1)))))
(assert (forall ((?v0 S3) (?v1 S3) (?v2 S4)) (let ((?v_0 (f4 f5 ?v2))) (=> (= (f29 ?v0 ?v1) f1) (= (f34 (f3 ?v_0 ?v0) (f3 ?v_0 ?v1)) f1)))))
(assert (forall ((?v0 S3) (?v1 S3) (?v2 S3)) (let ((?v_0 (f21 f71 ?v2))) (=> (= (f29 ?v0 ?v1) f1) (= (f95 (f20 ?v_0 ?v0) (f20 ?v_0 ?v1)) f1)))))
(assert (forall ((?v0 S3) (?v1 S3) (?v2 S31)) (let ((?v_0 (f64 f65 ?v2))) (=> (= (f29 ?v0 ?v1) f1) (= (f96 (f63 ?v_0 ?v0) (f63 ?v_0 ?v1)) f1)))))
(assert (forall ((?v0 S3) (?v1 S3) (?v2 S25)) (let ((?v_0 (f54 f55 ?v2))) (=> (= (f29 ?v0 ?v1) f1) (= (f97 (f53 ?v_0 ?v0) (f53 ?v_0 ?v1)) f1)))))
(assert (forall ((?v0 S3) (?v1 S3) (?v2 S16)) (let ((?v_0 (f38 f39 ?v2))) (=> (= (f29 ?v0 ?v1) f1) (= (f98 (f37 ?v_0 ?v0) (f37 ?v_0 ?v1)) f1)))))
(assert (forall ((?v0 S3) (?v1 S3) (?v2 S23)) (let ((?v_0 (f78 f79 ?v2))) (=> (= (f29 ?v0 ?v1) f1) (= (f99 (f77 ?v_0 ?v0) (f77 ?v_0 ?v1)) f1)))))
(assert (forall ((?v0 S3) (?v1 S3) (?v2 S9)) (let ((?v_0 (f102 f103 ?v2))) (=> (= (f29 ?v0 ?v1) f1) (= (f100 (f101 ?v_0 ?v0) (f101 ?v_0 ?v1)) f1)))))
(assert (forall ((?v0 S3)) (= (f20 (f21 f71 ?v0) f33) f43)))
(assert (forall ((?v0 S9)) (= (f101 (f102 f103 ?v0) f33) f18)))
(assert (forall ((?v0 S4)) (= (f3 (f4 f5 ?v0) f33) f69)))
(assert (forall ((?v0 S31)) (= (f63 (f64 f65 ?v0) f33) f94)))
(assert (forall ((?v0 S25)) (= (f53 (f54 f55 ?v0) f33) f73)))
(assert (forall ((?v0 S16)) (= (f37 (f38 f39 ?v0) f33) f49)))
(assert (forall ((?v0 S23)) (= (f77 (f78 f79 ?v0) f33) f59)))
(assert (= (f23 f27 f19) f33))
(assert (= (f61 f62 f70) f33))
(assert (= (f51 f52 f60) f33))
(assert (= (f35 f36 f44) f33))
(assert (forall ((?v0 S4) (?v1 S4)) (=> (= (f34 ?v0 ?v1) f1) (=> (not (= ?v1 f19)) (= (f29 (f23 f27 ?v0) (f23 f27 ?v1)) f1)))))
(assert (forall ((?v0 S31) (?v1 S31)) (=> (= (f96 ?v0 ?v1) f1) (=> (not (= ?v1 f70)) (= (f29 (f61 f62 ?v0) (f61 f62 ?v1)) f1)))))
(assert (forall ((?v0 S25) (?v1 S25)) (=> (= (f97 ?v0 ?v1) f1) (=> (not (= ?v1 f60)) (= (f29 (f51 f52 ?v0) (f51 f52 ?v1)) f1)))))
(assert (forall ((?v0 S4) (?v1 S3)) (= (f29 (f23 f27 (f3 (f4 f5 ?v0) ?v1)) (f20 (f21 f81 (f23 f27 ?v0)) ?v1)) f1)))
(assert (forall ((?v0 S31) (?v1 S3)) (= (f29 (f61 f62 (f63 (f64 f65 ?v0) ?v1)) (f20 (f21 f81 (f61 f62 ?v0)) ?v1)) f1)))
(assert (forall ((?v0 S25) (?v1 S3)) (= (f29 (f51 f52 (f53 (f54 f55 ?v0) ?v1)) (f20 (f21 f81 (f51 f52 ?v0)) ?v1)) f1)))
(assert (forall ((?v0 S16) (?v1 S3)) (= (f29 (f35 f36 (f37 (f38 f39 ?v0) ?v1)) (f20 (f21 f81 (f35 f36 ?v0)) ?v1)) f1)))
(assert (forall ((?v0 S9)) (= (f23 f27 (f8 (f13 f14 ?v0) f19)) f33)))
(assert (forall ((?v0 S4)) (= (f61 f62 (f66 (f67 f68 ?v0) f70)) f33)))
(assert (forall ((?v0 S23)) (= (f51 f52 (f56 (f57 f58 ?v0) f60)) f33)))
(assert (forall ((?v0 S3)) (= (f35 f36 (f40 (f41 f42 ?v0) f44)) f33)))
(assert (forall ((?v0 S3) (?v1 S3)) (=> (= (f30 f43 ?v0) f1) (=> (= (f30 f33 ?v1) f1) (= (f30 f43 (f20 (f21 f71 ?v0) ?v1)) f1)))))
(assert (forall ((?v0 S25) (?v1 S3)) (=> (= (f72 f73 ?v0) f1) (=> (= (f30 f33 ?v1) f1) (= (f72 f73 (f53 (f54 f55 ?v0) ?v1)) f1)))))
(assert (forall ((?v0 S23) (?v1 S3)) (=> (= (f75 f59 ?v0) f1) (=> (= (f30 f33 ?v1) f1) (= (f75 f59 (f77 (f78 f79 ?v0) ?v1)) f1)))))
(assert (forall ((?v0 S9) (?v1 S4) (?v2 S9) (?v3 S4)) (= (= (f8 (f13 f14 ?v0) ?v1) (f8 (f13 f14 ?v2) ?v3)) (and (= ?v0 ?v2) (= ?v1 ?v3)))))
(assert (forall ((?v0 S4) (?v1 S31) (?v2 S4) (?v3 S31)) (= (= (f66 (f67 f68 ?v0) ?v1) (f66 (f67 f68 ?v2) ?v3)) (and (= ?v0 ?v2) (= ?v1 ?v3)))))
(assert (forall ((?v0 S23) (?v1 S25) (?v2 S23) (?v3 S25)) (= (= (f56 (f57 f58 ?v0) ?v1) (f56 (f57 f58 ?v2) ?v3)) (and (= ?v0 ?v2) (= ?v1 ?v3)))))
(assert (forall ((?v0 S3) (?v1 S16) (?v2 S3) (?v3 S16)) (= (= (f40 (f41 f42 ?v0) ?v1) (f40 (f41 f42 ?v2) ?v3)) (and (= ?v0 ?v2) (= ?v1 ?v3)))))
(assert (forall ((?v0 S9) (?v1 S4)) (= (f34 (f3 (f4 f5 (f8 (f13 f14 (f15 f16 ?v0)) (f8 (f13 f14 f18) f19))) (f23 (f24 f25 ?v0) ?v1)) ?v1) f1)))
(assert (forall ((?v0 S31) (?v1 S46)) (= (f104 (f105 (f106 f107 (f108 (f109 f110 (f66 f111 ?v0)) (f108 (f109 f110 f94) f112))) (f113 (f114 f115 ?v0) ?v1)) ?v1) f1)))
(assert (forall ((?v0 S23) (?v1 S25)) (= (f97 (f53 (f54 f55 (f56 (f57 f58 (f82 f116 ?v0)) (f56 (f57 f58 f59) f60))) (f51 (f89 f90 ?v0) ?v1)) ?v1) f1)))
(assert (forall ((?v0 S4) (?v1 S31)) (= (f96 (f63 (f64 f65 (f66 (f67 f68 (f8 f117 ?v0)) (f66 (f67 f68 f69) f70))) (f61 (f87 f88 ?v0) ?v1)) ?v1) f1)))
(assert (forall ((?v0 S9) (?v1 S3)) (=> (not (= ?v0 f93)) (not (= (f101 (f102 f103 ?v0) ?v1) f93)))))
(assert (forall ((?v0 S23) (?v1 S3)) (=> (not (= ?v0 f80)) (not (= (f77 (f78 f79 ?v0) ?v1) f80)))))
(assert (forall ((?v0 S4) (?v1 S3)) (=> (not (= ?v0 f19)) (not (= (f3 (f4 f5 ?v0) ?v1) f19)))))
(assert (forall ((?v0 S31) (?v1 S3)) (=> (not (= ?v0 f70)) (not (= (f63 (f64 f65 ?v0) ?v1) f70)))))
(assert (forall ((?v0 S25) (?v1 S3)) (=> (not (= ?v0 f60)) (not (= (f53 (f54 f55 ?v0) ?v1) f60)))))
(assert (forall ((?v0 S9) (?v1 S3)) (= (= (f101 (f102 f103 ?v0) ?v1) f93) (and (= ?v0 f93) (not (= ?v1 f33))))))
(assert (forall ((?v0 S23) (?v1 S3)) (= (= (f77 (f78 f79 ?v0) ?v1) f80) (and (= ?v0 f80) (not (= ?v1 f33))))))
(assert (forall ((?v0 S3) (?v1 S3)) (= (= (f20 (f21 f71 ?v0) ?v1) f33) (and (= ?v0 f33) (not (= ?v1 f33))))))
(assert (forall ((?v0 S4) (?v1 S3)) (= (= (f3 (f4 f5 ?v0) ?v1) f19) (and (= ?v0 f19) (not (= ?v1 f33))))))
(assert (forall ((?v0 S31) (?v1 S3)) (= (= (f63 (f64 f65 ?v0) ?v1) f70) (and (= ?v0 f70) (not (= ?v1 f33))))))
(assert (forall ((?v0 S25) (?v1 S3)) (= (= (f53 (f54 f55 ?v0) ?v1) f60) (and (= ?v0 f60) (not (= ?v1 f33))))))
(assert (forall ((?v0 S3) (?v1 S3) (?v2 S3)) (= (f20 (f21 f71 (f20 (f21 f81 ?v0) ?v1)) ?v2) (f20 (f21 f81 (f20 (f21 f71 ?v0) ?v2)) (f20 (f21 f71 ?v1) ?v2)))))
(assert (forall ((?v0 S4) (?v1 S4) (?v2 S3)) (= (f3 (f4 f5 (f8 (f9 f10 ?v0) ?v1)) ?v2) (f8 (f9 f10 (f3 (f4 f5 ?v0) ?v2)) (f3 (f4 f5 ?v1) ?v2)))))
(assert (forall ((?v0 S31) (?v1 S31) (?v2 S3)) (= (f63 (f64 f65 (f66 (f118 f119 ?v0) ?v1)) ?v2) (f66 (f118 f119 (f63 (f64 f65 ?v0) ?v2)) (f63 (f64 f65 ?v1) ?v2)))))
(assert (forall ((?v0 S25) (?v1 S25) (?v2 S3)) (= (f53 (f54 f55 (f56 (f85 f86 ?v0) ?v1)) ?v2) (f56 (f85 f86 (f53 (f54 f55 ?v0) ?v2)) (f53 (f54 f55 ?v1) ?v2)))))
(assert (forall ((?v0 S16) (?v1 S16) (?v2 S3)) (= (f37 (f38 f39 (f40 (f120 f121 ?v0) ?v1)) ?v2) (f40 (f120 f121 (f37 (f38 f39 ?v0) ?v2)) (f37 (f38 f39 ?v1) ?v2)))))
(assert (forall ((?v0 S9) (?v1 S9) (?v2 S3)) (= (f101 (f102 f103 (f15 (f122 f123 ?v0) ?v1)) ?v2) (f15 (f122 f123 (f101 (f102 f103 ?v0) ?v2)) (f101 (f102 f103 ?v1) ?v2)))))
(assert (forall ((?v0 S23) (?v1 S23) (?v2 S3)) (= (f77 (f78 f79 (f82 (f83 f84 ?v0) ?v1)) ?v2) (f82 (f83 f84 (f77 (f78 f79 ?v0) ?v2)) (f77 (f78 f79 ?v1) ?v2)))))
(assert (forall ((?v0 S3) (?v1 S3)) (let ((?v_0 (f20 (f21 f71 ?v0) ?v1))) (= (f20 (f21 f81 ?v_0) ?v0) (f20 (f21 f81 ?v0) ?v_0)))))
(assert (forall ((?v0 S4) (?v1 S3)) (let ((?v_0 (f3 (f4 f5 ?v0) ?v1))) (= (f8 (f9 f10 ?v_0) ?v0) (f8 (f9 f10 ?v0) ?v_0)))))
(assert (forall ((?v0 S31) (?v1 S3)) (let ((?v_0 (f63 (f64 f65 ?v0) ?v1))) (= (f66 (f118 f119 ?v_0) ?v0) (f66 (f118 f119 ?v0) ?v_0)))))
(assert (forall ((?v0 S25) (?v1 S3)) (let ((?v_0 (f53 (f54 f55 ?v0) ?v1))) (= (f56 (f85 f86 ?v_0) ?v0) (f56 (f85 f86 ?v0) ?v_0)))))
(assert (forall ((?v0 S16) (?v1 S3)) (let ((?v_0 (f37 (f38 f39 ?v0) ?v1))) (= (f40 (f120 f121 ?v_0) ?v0) (f40 (f120 f121 ?v0) ?v_0)))))
(assert (forall ((?v0 S9) (?v1 S3)) (let ((?v_0 (f101 (f102 f103 ?v0) ?v1))) (= (f15 (f122 f123 ?v_0) ?v0) (f15 (f122 f123 ?v0) ?v_0)))))
(assert (forall ((?v0 S23) (?v1 S3)) (let ((?v_0 (f77 (f78 f79 ?v0) ?v1))) (= (f82 (f83 f84 ?v_0) ?v0) (f82 (f83 f84 ?v0) ?v_0)))))
(assert (forall ((?v0 S3)) (= (f20 (f21 f71 f43) ?v0) f43)))
(assert (forall ((?v0 S3)) (= (f101 (f102 f103 f18) ?v0) f18)))
(assert (forall ((?v0 S3)) (= (f3 (f4 f5 f69) ?v0) f69)))
(assert (forall ((?v0 S3)) (= (f63 (f64 f65 f94) ?v0) f94)))
(assert (forall ((?v0 S3)) (= (f53 (f54 f55 f73) ?v0) f73)))
(assert (forall ((?v0 S3)) (= (f37 (f38 f39 f49) ?v0) f49)))
(assert (forall ((?v0 S3)) (= (f77 (f78 f79 f59) ?v0) f59)))
(assert (forall ((?v0 S9) (?v1 S4) (?v2 S9) (?v3 S4)) (= (f8 (f9 f124 (f8 (f13 f14 ?v0) ?v1)) (f8 (f13 f14 ?v2) ?v3)) (f8 (f13 f14 (f15 (f122 f125 ?v0) ?v2)) (f8 (f9 f124 ?v1) ?v3)))))
(assert (forall ((?v0 S23) (?v1 S25) (?v2 S23) (?v3 S25)) (= (f56 (f85 f126 (f56 (f57 f58 ?v0) ?v1)) (f56 (f57 f58 ?v2) ?v3)) (f56 (f57 f58 (f82 (f83 f127 ?v0) ?v2)) (f56 (f85 f126 ?v1) ?v3)))))
(assert (forall ((?v0 S31) (?v1 S46) (?v2 S31) (?v3 S46)) (= (f108 (f128 f129 (f108 (f109 f110 ?v0) ?v1)) (f108 (f109 f110 ?v2) ?v3)) (f108 (f109 f110 (f66 (f118 f130 ?v0) ?v2)) (f108 (f128 f129 ?v1) ?v3)))))
(assert (forall ((?v0 S4) (?v1 S31) (?v2 S4) (?v3 S31)) (= (f66 (f118 f130 (f66 (f67 f68 ?v0) ?v1)) (f66 (f67 f68 ?v2) ?v3)) (f66 (f67 f68 (f8 (f9 f124 ?v0) ?v2)) (f66 (f118 f130 ?v1) ?v3)))))
(assert (forall ((?v0 S9) (?v1 S4)) (= (f8 f117 (f8 (f13 f14 ?v0) ?v1)) (f8 (f13 f14 (f15 f16 ?v0)) (f8 f117 ?v1)))))
(assert (forall ((?v0 S23) (?v1 S25)) (= (f56 f131 (f56 (f57 f58 ?v0) ?v1)) (f56 (f57 f58 (f82 f116 ?v0)) (f56 f131 ?v1)))))
(assert (forall ((?v0 S31) (?v1 S46)) (= (f108 f132 (f108 (f109 f110 ?v0) ?v1)) (f108 (f109 f110 (f66 f111 ?v0)) (f108 f132 ?v1)))))
(assert (forall ((?v0 S4) (?v1 S31)) (= (f66 f111 (f66 (f67 f68 ?v0) ?v1)) (f66 (f67 f68 (f8 f117 ?v0)) (f66 f111 ?v1)))))
(assert (forall ((?v0 S9) (?v1 S4)) (= (f8 f117 (f8 (f13 f14 ?v0) ?v1)) (f8 (f13 f14 (f15 f16 ?v0)) (f8 f117 ?v1)))))
(assert (forall ((?v0 S23) (?v1 S25)) (= (f56 f131 (f56 (f57 f58 ?v0) ?v1)) (f56 (f57 f58 (f82 f116 ?v0)) (f56 f131 ?v1)))))
(assert (forall ((?v0 S31) (?v1 S46)) (= (f108 f132 (f108 (f109 f110 ?v0) ?v1)) (f108 (f109 f110 (f66 f111 ?v0)) (f108 f132 ?v1)))))
(assert (forall ((?v0 S4) (?v1 S31)) (= (f66 f111 (f66 (f67 f68 ?v0) ?v1)) (f66 (f67 f68 (f8 f117 ?v0)) (f66 f111 ?v1)))))
(assert (forall ((?v0 S4)) (= (f8 (f9 f10 ?v0) f19) f19)))
(assert (forall ((?v0 S31)) (= (f66 (f118 f119 ?v0) f70) f70)))
(assert (forall ((?v0 S25)) (= (f56 (f85 f86 ?v0) f60) f60)))
(assert (forall ((?v0 S16)) (= (f40 (f120 f121 ?v0) f44) f44)))
(assert (forall ((?v0 S4)) (= (f8 (f9 f10 f19) ?v0) f19)))
(assert (forall ((?v0 S31)) (= (f66 (f118 f119 f70) ?v0) f70)))
(assert (forall ((?v0 S25)) (= (f56 (f85 f86 f60) ?v0) f60)))
(assert (forall ((?v0 S16)) (= (f40 (f120 f121 f44) ?v0) f44)))
(assert (forall ((?v0 S23) (?v1 S23) (?v2 S3)) (=> (= (f76 ?v0 ?v1) f1) (=> (= (f76 f80 ?v0) f1) (= (f76 (f77 (f78 f79 ?v0) ?v2) (f77 (f78 f79 ?v1) ?v2)) f1)))))
(assert (forall ((?v0 S3) (?v1 S3) (?v2 S3)) (=> (= (f29 ?v0 ?v1) f1) (=> (= (f29 f33 ?v0) f1) (= (f29 (f20 (f21 f71 ?v0) ?v2) (f20 (f21 f71 ?v1) ?v2)) f1)))))
(assert (forall ((?v0 S25) (?v1 S25) (?v2 S3)) (=> (= (f74 ?v0 ?v1) f1) (=> (= (f74 f60 ?v0) f1) (= (f74 (f53 (f54 f55 ?v0) ?v2) (f53 (f54 f55 ?v1) ?v2)) f1)))))
(assert (forall ((?v0 S23) (?v1 S3)) (=> (= (f76 f80 ?v0) f1) (= (f76 f80 (f77 (f78 f79 ?v0) ?v1)) f1))))
(assert (forall ((?v0 S3) (?v1 S3)) (=> (= (f29 f33 ?v0) f1) (= (f29 f33 (f20 (f21 f71 ?v0) ?v1)) f1))))
(assert (forall ((?v0 S25) (?v1 S3)) (=> (= (f74 f60 ?v0) f1) (= (f74 f60 (f53 (f54 f55 ?v0) ?v1)) f1))))
(check-sat)
(exit)
